This is Ipopt version 3.10.1, running with linear solver mumps.

Number of nonzeros in equality constraint Jacobian...:      141
Number of nonzeros in inequality constraint Jacobian.:        0
Number of nonzeros in Lagrangian Hessian.............:     2019

Total number of variables............................:       72
                     variables with only lower bounds:        0
                variables with lower and upper bounds:       72
                     variables with only upper bounds:        0
Total number of equality constraints.................:       47
Total number of inequality constraints...............:        0
        inequality constraints with only lower bounds:        0
   inequality constraints with lower and upper bounds:        0
        inequality constraints with only upper bounds:        0

iter    objective    inf_pr   inf_du lg(mu)  ||d||  lg(rg) alpha_du alpha_pr  ls
   0 -8.3874436e-04 3.21e-12 2.97e-03  -1.0 0.00e+00    -  0.00e+00 0.00e+00   0
   1 -8.6603953e-04 2.22e-16 2.98e-05  -1.7 1.69e-02    -  9.99e-01 1.00e+00f  1
   2 -9.3784906e-04 2.22e-16 2.25e-05  -2.5 4.14e-02    -  1.00e+00 1.00e+00f  1
   3 -1.0617833e-03 6.43e-12 4.68e-05  -3.8 2.54e-02    -  9.91e-01 1.00e+00f  1
   4 -1.6275289e-03 2.22e-16 7.91e-04  -5.7 5.56e-02  -2.0 8.65e-01 1.00e+00f  1
   5 -2.2121370e-03 2.22e-16 1.10e-03  -5.7 3.50e-02  -1.6 1.00e+00 1.00e+00f  1
   6 -2.5772226e-03 2.22e-16 1.20e-03  -5.7 1.63e-02  -1.1 1.00e+00 1.00e+00f  1
   7 -8.3950096e-03 2.22e-16 8.90e-03  -5.7 1.21e-01  -1.6 1.00e+00 1.00e+00f  1
   8 -9.9210164e-03 7.57e-13 9.74e-03  -5.7 3.99e-01  -1.2 1.00e+00 4.29e-02f  1
   9 -1.1684923e-02 1.93e-12 9.41e-03  -5.7 4.90e-02  -0.8 1.00e+00 3.93e-01f  1
iter    objective    inf_pr   inf_du lg(mu)  ||d||  lg(rg) alpha_du alpha_pr  ls
  10 -1.3921943e-02 2.96e-12 1.05e-01  -5.7 2.75e+00  -1.3 2.70e-01 8.89e-03f  1
  11 -1.5226197e-02 3.36e-12 1.39e-02  -5.7 7.31e-02  -0.8 1.00e+00 1.86e-01f  1
  12 -1.7773581e-02 4.48e-12 9.98e-02  -5.7 6.44e-01  -1.3 7.72e-01 4.11e-02f  1
  13 -2.3972796e-02 2.00e-13 8.22e-03  -5.7 6.41e-02  -0.9 1.00e+00 9.55e-01f  1
  14 -2.8341362e-02 1.96e-13 6.90e-02  -5.7 2.19e+00  -1.4 1.93e-01 1.85e-02f  1
  15 -2.9001870e-02 5.24e-13 2.43e-02  -5.7 1.09e-01  -0.9 1.00e+00 5.25e-02f  1
  16 -3.2222907e-02 1.72e-12 4.23e-02  -5.7 4.65e+00  -1.4 6.15e-02 1.11e-02f  1
  17 -3.4496531e-02 2.47e-12 2.70e-02  -5.7 1.52e-01  -1.0 1.00e+00 1.32e-01f  1
  18 -3.7299210e-02 2.41e-12 2.52e-02  -5.7 3.58e+00  -1.5 1.10e-02 2.46e-02f  1
  19 -3.9249143e-02 2.22e-12 2.84e-02  -5.7 1.98e-01  -1.0 5.26e-01 7.73e-02f  1
iter    objective    inf_pr   inf_du lg(mu)  ||d||  lg(rg) alpha_du alpha_pr  ls
  20 -3.9626787e-02 2.10e-12 2.00e-02  -5.7 5.48e-02  -0.6 1.00e+00 5.46e-02f  1
  21 -4.2281154e-02 3.01e-12 3.56e-02  -5.7 2.71e-01  -1.1 7.10e-01 7.83e-02f  1
  22 -5.2059897e-02 7.49e-12 1.25e-02  -5.7 5.64e-02  -0.7 9.79e-01 1.00e+00f  1
  23 -5.7601735e-02 7.48e-12 7.52e-02  -5.7 2.56e+01  -1.1 1.22e-02 1.27e-03f  1
  24 -5.8186748e-02 7.46e-12 3.91e-02  -5.7 1.02e-01  -0.7 1.00e+00 2.85e-02f  1
  25 -6.3700191e-02 2.22e-16 1.56e-02  -5.7 3.02e-02  -0.3 1.00e+00 1.00e+00f  1
  26 -7.4711491e-02 4.65e-12 2.14e-02  -5.7 1.64e-01  -0.8 4.67e-01 3.54e-01f  1
  27 -7.4707108e-02 4.65e-12 2.14e-02  -5.7 5.18e-01  -1.2 5.46e-03 6.47e-05f 11
  28 -7.4701650e-02 4.65e-12 2.14e-02  -5.7 4.50e+00  -0.8 1.15e-02 1.32e-05f 13
  29 -7.2610195e-02 4.40e-12 2.17e-02  -5.7 5.72e-01  -1.3 1.81e-01 5.41e-02h  1
iter    objective    inf_pr   inf_du lg(mu)  ||d||  lg(rg) alpha_du alpha_pr  ls
  30 -8.7639017e-02 1.02e-11 8.32e-02  -5.7 2.63e-01  -0.9 1.00e+00 2.48e-01f  1
  31 -8.8972379e-02 1.06e-11 4.73e-02  -5.7 7.52e-02  -0.4 1.00e+00 6.09e-02f  1
  32 -9.8421872e-02 9.43e-12 8.93e-02  -5.7 4.05e-01  -0.9 4.01e-01 1.08e-01f  1
  33 -1.0976512e-01 1.49e-11 2.92e-02  -5.7 8.59e-02  -0.5 1.00e+00 5.79e-01f  1
  34 -1.1474385e-01 1.42e-11 4.22e-02  -5.7 4.87e-01  -1.0 1.46e-01 4.76e-02f  1
  35 -1.1474343e-01 1.42e-11 4.08e-02  -5.7 1.29e+00  -1.4 2.66e-03 1.99e-06f 12
  36 -1.1473543e-01 1.42e-11 4.00e-02  -5.7 3.99e+01  -1.0 3.53e-05 1.04e-06f  8
  37 -1.1426889e-01 1.41e-11 3.91e-02  -5.7 9.20e-01  -1.5 5.05e-03 3.09e-03h  1
  38 -1.1474857e-01 1.40e-11 4.00e-02  -5.7 1.62e+00  -2.0 2.80e-03 1.25e-02f  1
  39 -1.1483708e-01 1.39e-11 6.58e-02  -5.7 1.37e-01  -0.6 7.04e-01 3.39e-03f  1
iter    objective    inf_pr   inf_du lg(mu)  ||d||  lg(rg) alpha_du alpha_pr  ls
  40 -1.1767821e-01 1.42e-11 1.57e-01  -5.7 8.25e-01  -1.1 4.54e-01 2.12e-02f  1
  41 -1.2840764e-01 8.82e-12 5.88e-02  -5.7 1.46e-01  -0.7 1.00e+00 3.80e-01f  1
  42 -1.2908315e-01 8.59e-12 6.21e-02  -5.7 2.85e-01    -  2.72e-01 2.60e-02f  1
  43 -1.2908042e-01 8.58e-12 6.15e-02  -5.7 4.69e-01    -  2.52e-02 1.99e-04f  9
  44 -1.3112377e-01 9.72e-12 6.09e-02  -5.7 3.07e-01  -1.2 1.79e-01 5.41e-02f  1
  45 -1.3719898e-01 5.33e-12 3.62e-02  -5.7 8.72e-02  -0.7 1.74e-01 4.51e-01f  1
  46 -1.3719178e-01 5.33e-12 3.53e-02  -5.7 5.49e-01    -  3.72e-02 2.07e-04f  8
  47 -1.3648502e-01 5.22e-12 3.82e-02  -5.7 5.44e-01    -  4.57e-02 2.08e-02h  1
  48 -1.3647713e-01 5.22e-12 6.52e-02  -5.7 5.15e-01    -  1.35e-01 2.50e-04f  9
  49 -1.3799627e-01 5.04e-12 6.90e-02  -5.7 4.00e-01  -1.2 3.05e-02 3.40e-02f  1
iter    objective    inf_pr   inf_du lg(mu)  ||d||  lg(rg) alpha_du alpha_pr  ls
  50 -1.4051989e-01 4.17e-12 3.39e-02  -5.7 1.08e-01  -0.8 7.34e-01 1.73e-01f  1
  51 -1.4051573e-01 4.17e-12 5.93e-02  -5.7 5.81e-01    -  1.50e-01 9.61e-05f  8
  52 -1.4059078e-01 4.17e-12 5.82e-02  -5.7 1.17e+01    -  1.46e-04 8.60e-05f  1
  53 -1.5728336e-01 3.04e-12 5.23e-02  -5.7 5.21e-01  -1.3 1.86e-01 2.70e-01f  1
  54 -1.5953277e-01 2.74e-12 4.89e-02  -5.7 1.58e-01  -0.8 3.77e-02 9.99e-02f  1
  55 -1.5952387e-01 2.74e-12 5.34e-02  -5.7 5.04e-01  -1.3 1.22e-01 2.04e-04f  6
  56 -1.6653076e-01 2.15e-12 5.48e-02  -5.7 1.97e-01  -0.9 4.34e-02 2.15e-01f  1
  57 -1.6931667e-01 2.12e-12 6.14e-02  -5.7 3.39e+00    -  7.15e-03 1.56e-02f  1
  58 -1.6929698e-01 2.12e-12 6.13e-02  -5.7 7.25e+00    -  5.22e-06 4.06e-05f  5
  59 -1.8044994e-01 9.41e-12 8.13e-02  -5.7 2.48e+00  -1.4 8.93e-05 2.39e-02f  1
iter    objective    inf_pr   inf_du lg(mu)  ||d||  lg(rg) alpha_du alpha_pr  ls
  60 -1.8223288e-01 9.36e-12 1.34e-01  -5.7 6.24e+00    -  1.97e-05 4.79e-03f  1
  61 -1.8221866e-01 9.36e-12 1.34e-01  -5.7 2.24e-01    -  2.66e-02 4.25e-04f  9
  62 -1.8240930e-01 9.06e-12 1.31e-01  -5.7 3.45e-01    -  7.51e-03 3.22e-02f  1
  63 -1.8287515e-01 8.52e-12 1.23e-01  -5.7 3.64e-01    -  7.16e-02 5.90e-02f  1
  64 -1.8840848e-01 1.07e-11 1.22e-01  -5.7 5.04e-01    -  7.65e-05 8.05e-02f  1
  65 -1.8838871e-01 1.07e-11 1.22e-01  -5.7 5.16e-01    -  6.83e-05 3.26e-04f  2
  66 -1.8828233e-01 1.02e-11 1.03e-01  -5.7 3.30e-01    -  2.43e-01 4.36e-02h  1
  67 -1.9222240e-01 1.25e-11 1.01e-01  -5.7 3.88e-01    -  2.19e-03 9.36e-02f  1
  68 -1.9731043e-01 6.66e-13 7.02e-02  -5.7 2.69e-02  -0.0 8.38e-02 9.47e-01f  1
  69 -1.9730283e-01 6.66e-13 8.45e-02  -5.7 2.95e-01    -  5.39e-01 4.36e-04f 10
iter    objective    inf_pr   inf_du lg(mu)  ||d||  lg(rg) alpha_du alpha_pr  ls
  70 -2.0209782e-01 2.45e-12 6.88e-02  -5.7 1.46e-01  -0.5 1.65e-01 1.35e-01f  1
  71 -2.0208904e-01 2.45e-12 8.16e-02  -5.7 2.95e-01    -  3.10e-01 3.47e-04f 11
  72 -1.9159727e-01 2.13e-12 8.78e-02  -5.7 3.54e-01  -1.0 2.29e-01 1.33e-01h  1
  73 -1.9818931e-01 1.76e-12 1.14e-01  -5.7 3.75e-01    -  2.10e-04 1.75e-01f  1
  74 -1.9815837e-01 1.75e-12 1.12e-01  -5.7 1.57e-01    -  1.00e+00 1.53e-03f  6
  75 -1.9698115e-01 1.70e-12 1.09e-01  -5.7 2.32e-01  -1.5 4.99e-02 2.75e-02h  1
  76 -1.9697895e-01 1.70e-12 1.07e-01  -5.7 3.09e-01    -  1.84e-01 4.87e-05f  8
  77 -1.9730369e-01 2.24e-12 1.02e-01  -5.7 9.52e-02    -  8.34e-02 3.72e-02f  2
  78 -1.9688537e-01 2.22e-12 1.01e-01  -5.7 2.39e-01    -  8.49e-03 1.13e-02h  1
  79 -1.9690852e-01 2.25e-12 1.01e-01  -5.7 4.41e-01    -  1.33e-05 3.96e-04f  6
iter    objective    inf_pr   inf_du lg(mu)  ||d||  lg(rg) alpha_du alpha_pr  ls
  80 -1.9688910e-01 2.25e-12 1.18e-01  -5.7 2.21e-01    -  8.95e-01 5.64e-04h  1
  81 -1.9687249e-01 2.24e-12 1.06e-01  -5.7 9.37e-02  -1.9 8.45e-02 6.46e-03f  8
Restoration phase is called at point that is almost feasible,
  with constraint violation 3.172296e-11. Abort.

Number of Iterations....: 81

                                   (scaled)                 (unscaled)
Objective...............:  -1.9687249462621811e-01   -1.9687249462621811e-01
Dual infeasibility......:   1.0603522489927218e-01    1.0603522489927218e-01
Constraint violation....:   2.2355450823852152e-12    2.2355450823852152e-12
Complementarity.........:   1.0823277664285886e-04    1.0823277664285886e-04
Overall NLP error.......:   1.0603522489927218e-01    1.0603522489927218e-01


Number of objective function evaluations             = 220
Number of objective gradient evaluations             = 83
Number of equality constraint evaluations            = 220
Number of inequality constraint evaluations          = 0
Number of equality constraint Jacobian evaluations   = 1
Number of inequality constraint Jacobian evaluations = 0
Number of Lagrangian Hessian evaluations             = 82
Total CPU secs in IPOPT (w/o function evaluations)   =      0.210
Total CPU secs in NLP function evaluations           =      1.810

EXIT: Restoration Failed!
